! Postprocessing of DOS calculation
! Adjust variables 'prefix' and 'outdir' to
! correspond to the SCF/non-SCF calculations.

&dos
  prefix = 'cspbi3'
  outdir = './cspbi3/'
  DeltaE = 0.01

! Adjust name of output file here if so desired
  fildos  = 'CsPbI3_dos_tetra.dat'
/

